
Welcome to IBM(R) ILOG(R) CPLEX(R) Interactive Optimizer 22.1.1.0
  with Simplex, Mixed Integer & Barrier Optimizers
5725-A06 5725-A29 5724-Y48 5724-Y49 5724-Y54 5724-Y55 5655-Y21
Copyright IBM Corp. 1988, 2022.  All Rights Reserved.

Type 'help' for a list of available commands.
Type 'help' followed by a command name for more
information on commands.

CPLEX> Selected objective sense:  MINIMIZE
Selected objective  name:  00000000
Selected RHS        name:  RHS1
Selected bound      name:  BOUND
Problem 'ee.mps' read.
Read time = 0.02 sec. (3.17 ticks)
CPLEX> New value for time limit in seconds: 7200
CPLEX> New value for parallel optimization mode: -1
CPLEX> New value for default parallel thread count: 40
CPLEX> New value for mixed integer optimality gap tolerance: 1e-13
CPLEX> Version identifier: 22.1.1.0 | 2022-11-28 | 9160aff4d
CPXPARAM_Threads                                 40
CPXPARAM_Parallel                                -1
CPXPARAM_TimeLimit                               7200
CPXPARAM_MIP_Tolerances_MIPGap                   1e-13
Found incumbent of value 0.000000 after 0.00 sec. (0.31 ticks)
Tried aggregator 2 times.
MIP Presolve eliminated 180 rows and 2745 columns.
MIP Presolve modified 6090 coefficients.
Aggregator did 713 substitutions.
Reduced MIP has 3635 rows, 7835 columns, and 28930 nonzeros.
Reduced MIP has 7835 binaries, 0 generals, 0 SOSs, and 0 indicators.
Presolve time = 0.08 sec. (68.90 ticks)
Probing time = 0.03 sec. (5.32 ticks)
Tried aggregator 1 time.
Detecting symmetries...
Reduced MIP has 3635 rows, 7835 columns, and 28930 nonzeros.
Reduced MIP has 7835 binaries, 0 generals, 0 SOSs, and 0 indicators.
Presolve time = 0.03 sec. (22.01 ticks)
Probing time = 0.02 sec. (5.12 ticks)
Clique table members: 18781.
MIP emphasis: balance optimality and feasibility.
MIP search method: dynamic search.
Parallel mode: opportunistic, using up to 40 threads.
Root relaxation solution time = 0.13 sec. (122.20 ticks)

        Nodes                                         Cuts/
   Node  Left     Objective  IInf  Best Integer    Best Bound    ItCnt     Gap

*     0+    0                            0.0000  -1.54000e+13              --- 
*     0+    0                      -8.40000e+12  -1.54000e+13            83.33%
      0     0  -1.53900e+13    61  -8.40000e+12  -1.53900e+13     2450   83.21%
*     0+    0                      -1.53900e+13  -1.53900e+13             0.00%
      0     0  -1.53900e+13   156  -1.53900e+13      Cuts: 62     2890    0.00%
*     0+    0                      -1.53900e+13  -1.53900e+13             0.00%
*     0+    0                      -1.53900e+13  -1.53900e+13             0.00%
      0     0  -1.53900e+13   156  -1.53900e+13      Cuts: 48     3356    0.00%
*     0+    0                      -1.53900e+13  -1.53900e+13             0.00%
*     0+    0                      -1.53900e+13  -1.53900e+13             0.00%
      0     2  -1.53900e+13   156  -1.53900e+13  -1.53900e+13     3356    0.00%
Elapsed time = 2.22 sec. (1008.06 ticks, tree = 0.02 MB, solutions = 8)
*    26+   24                      -1.53900e+13  -1.53900e+13             0.00%
     96    44  -1.53900e+13   230  -1.53900e+13  -1.53900e+13    13378    0.00%
    349    97  -1.53900e+13   145  -1.53900e+13  -1.53900e+13    31688    0.00%
    674   302  -1.53900e+13   111  -1.53900e+13  -1.53900e+13   106929    0.00%
   1117   423  -1.53900e+13   123  -1.53900e+13  -1.53900e+13   135548    0.00%
   1568   680  -1.53900e+13   104  -1.53900e+13  -1.53900e+13   200050    0.00%
   1868  1171  -1.53900e+13   140  -1.53900e+13  -1.53900e+13   340126    0.00%
   2039   771    infeasible        -1.53900e+13  -1.53900e+13   216310    0.00%
   2184   943  -1.53900e+13   289  -1.53900e+13  -1.53900e+13   268738    0.00%
   2354  1341  -1.53900e+13   182  -1.53900e+13  -1.53900e+13   409621    0.00%
   3375  1925        cutoff        -1.53900e+13  -1.53900e+13   680608    0.00%
Elapsed time = 8.45 sec. (4127.11 ticks, tree = 7.04 MB, solutions = 12)
   4068  1928        cutoff        -1.53900e+13  -1.53900e+13   687803    0.00%
   4670  2199  -1.53900e+13   265  -1.53900e+13  -1.53900e+13   923011    0.00%
   5169  2335    infeasible        -1.53900e+13  -1.53900e+13  1065460    0.00%
   5727  2531  -1.53900e+13   107  -1.53900e+13  -1.53900e+13  1238960    0.00%
   6267  2836  -1.53900e+13   152  -1.53900e+13  -1.53900e+13  1572193    0.00%
   6791  2941        cutoff        -1.53900e+13  -1.53900e+13  1689474    0.00%
   7416  3036  -1.53900e+13   165  -1.53900e+13  -1.53900e+13  1865833    0.00%
   7998  3126        cutoff        -1.53900e+13  -1.53900e+13  1992969    0.00%
   8582  3370        cutoff        -1.53900e+13  -1.53900e+13  2248976    0.00%
   9189  3544        cutoff        -1.53900e+13  -1.53900e+13  2415628    0.00%
Elapsed time = 21.44 sec. (13689.38 ticks, tree = 17.71 MB, solutions = 12)
   9731  3643        cutoff        -1.53900e+13  -1.53900e+13  2480057    0.00%
  10160  3778        cutoff        -1.53900e+13  -1.53900e+13  2785806    0.00%
  10418  3786  -1.53900e+13   176  -1.53900e+13  -1.53900e+13  2802415    0.00%

Performing restart 1

Repeating presolve.
Tried aggregator 2 times.
MIP Presolve eliminated 254 rows and 759 columns.
MIP Presolve modified 2116 coefficients.
Aggregator did 60 substitutions.
Reduced MIP has 3233 rows, 7014 columns, and 25234 nonzeros.
Reduced MIP has 7014 binaries, 0 generals, 0 SOSs, and 0 indicators.
Presolve time = 0.05 sec. (47.12 ticks)
Tried aggregator 2 times.
MIP Presolve eliminated 53 rows and 98 columns.
MIP Presolve modified 16 coefficients.
Aggregator did 14 substitutions.
Reduced MIP has 3166 rows, 6887 columns, and 24804 nonzeros.
Reduced MIP has 6887 binaries, 0 generals, 0 SOSs, and 0 indicators.
Presolve time = 0.05 sec. (42.48 ticks)
Tried aggregator 1 time.
Reduced MIP has 3166 rows, 6887 columns, and 24804 nonzeros.
Reduced MIP has 6887 binaries, 0 generals, 0 SOSs, and 0 indicators.
Presolve time = 0.02 sec. (18.00 ticks)
Represolve time = 0.30 sec. (191.04 ticks)
  10419     0  -1.53900e+13   304  -1.53900e+13      Cuts: 37  3299934    0.00%
  10419     0  -1.53900e+13   292  -1.53900e+13      Cuts: 26  3300106    0.00%
  10419     0  -1.53900e+13   242  -1.53900e+13      Cuts: 57  3301106    0.00%
  10419     0  -1.53900e+13   240  -1.53900e+13      Cuts: 27  3301702    0.00%
  10419     0  -1.53900e+13   224  -1.53900e+13      Cuts: 22  3301817    0.00%
  10419     0  -1.53900e+13   243  -1.53900e+13      Cuts: 31  3301928    0.00%
  10419     0  -1.53900e+13   269  -1.53900e+13      Cuts: 24  3302050    0.00%
  10419     0  -1.53900e+13   258  -1.53900e+13      Cuts: 17  3302111    0.00%
  10419     0  -1.53900e+13   307  -1.53900e+13      Cuts: 12  3302228    0.00%
  10419     0  -1.53900e+13   250  -1.53900e+13      Cuts: 25  3302299    0.00%
  10419     0  -1.53900e+13   338  -1.53900e+13      Cuts: 11  3302385    0.00%
  10419     0  -1.53900e+13   333  -1.53900e+13      Cuts: 21  3302463    0.00%
  10419     0  -1.53900e+13   358  -1.53900e+13      Cuts: 18  3302497    0.00%
  10419     0  -1.53900e+13   334  -1.53900e+13       Cuts: 9  3302530    0.00%
  10419     0  -1.53900e+13   306  -1.53900e+13      Cuts: 13  3302609    0.00%
  10419     0  -1.53900e+13   320  -1.53900e+13      Cuts: 22  3302672    0.00%
  10419    15        cutoff        -1.53900e+13  -1.53900e+13  3317160    0.00%
  11233    68  -1.53900e+13   134  -1.53900e+13  -1.53900e+13  3342955    0.00%
  12714    90        cutoff        -1.53900e+13  -1.53900e+13  3368160    0.00%
  14836    77  -1.53900e+13   216  -1.53900e+13  -1.53900e+13  3399559    0.00%
  17871   127        cutoff        -1.53900e+13  -1.53900e+13  3695394    0.00%
  19441   210        cutoff        -1.53900e+13  -1.53900e+13  3637763    0.00%

GUB cover cuts applied:  2
Clique cuts applied:  10
Cover cuts applied:  435
Flow cuts applied:  2
Mixed integer rounding cuts applied:  19
Zero-half cuts applied:  85
Lift and project cuts applied:  3
Gomory fractional cuts applied:  11

Root node processing (before b&c):
  Real time             =    1.33 sec. (994.56 ticks)
Parallel b&c, 40 threads:
  Real time             =   33.47 sec. (24191.34 ticks)
  Sync time (average)   =    3.99 sec.
  Wait time (average)   =    0.15 sec.
                          ------------
Total (root+branch&cut) =   34.80 sec. (25185.90 ticks)

Solution pool: 33 solutions saved.

MIP - Integer optimal solution:  Objective = -1.5389999489e+13
Solution time =   34.96 sec.  Iterations = 3846789  Nodes = 19650
Deterministic time = 25185.94 ticks  (720.48 ticks/sec)

CPLEX> Solution 'p34' written to file 'ee.sol'.
CPLEX> 